ilp_joint/output/convection_ilp.lp
Maximize
  5.3552863684290335e-04 Z_57_0_0 + 0.00183726162877074 Z_57_0_1
   + 0.6676934150969578 Z_57_0_2 + 9.2004927376231397e-04 Z_57_0_3
   + 0.2290137453636662 Z_57_0_4 + 0.000451468 Z_139_0_0
   + 0.00516868652420349 Z_139_0_1 + 0.596406189502811 Z_139_0_2
   + 0.00113875573715435 Z_139_0_3 + 0.2968349002393478 Z_139_0_4
   + 1.6365542901913537e-04 Z_525_0_0 + 0.00721446647211944 Z_525_0_1
   + 0.7818405585716077 Z_525_0_2 + 3.3234016062635589e-04 Z_525_0_3
   + 0.1104489793666273 Z_525_0_4 + [ 0.00073997 Z_57_0_0 * Z_139_0_0
   + 0.00073997 Z_57_0_1 * Z_139_0_1 + 0.00073997 Z_57_0_2 * Z_139_0_2
   + 0.00073997 Z_57_0_3 * Z_139_0_3 + 0.00073997 Z_57_0_4 * Z_139_0_4
   + 0.0469387755102041 Z_139_0_0 * Z_525_0_0
   + 0.0469387755102041 Z_139_0_1 * Z_525_0_1
   + 0.0469387755102041 Z_139_0_2 * Z_525_0_2
   + 0.0469387755102041 Z_139_0_3 * Z_525_0_3
   + 0.0469387755102041 Z_139_0_4 * Z_525_0_4 ] / 2 
Subject To
 constraint1_570: Z_57_0_0 + Z_57_0_1 + Z_57_0_2 + Z_57_0_3 + Z_57_0_4
   <= 1
 constraint1_1390: Z_139_0_0 + Z_139_0_1 + Z_139_0_2 + Z_139_0_3
   + Z_139_0_4 <= 1
 constraint1_5250: Z_525_0_0 + Z_525_0_1 + Z_525_0_2 + Z_525_0_3
   + Z_525_0_4 <= 1
 constraint2_570: Z_57_0_0 <= 1
 constraint2_571: Z_57_0_1 <= 1
 constraint2_572: Z_57_0_2 <= 1
 constraint2_573: Z_57_0_3 <= 1
 constraint2_1390: Z_139_0_0 <= 1
 constraint2_1391: Z_139_0_1 <= 1
 constraint2_1392: Z_139_0_2 <= 1
 constraint2_1393: Z_139_0_3 <= 1
 constraint2_5250: Z_525_0_0 <= 1
 constraint2_5251: Z_525_0_1 <= 1
 constraint2_5252: Z_525_0_2 <= 1
 constraint2_5253: Z_525_0_3 <= 1
Bounds
Binaries
 Z_57_0_0 Z_57_0_1 Z_57_0_2 Z_57_0_3 Z_57_0_4 Z_139_0_0 Z_139_0_1 Z_139_0_2
 Z_139_0_3 Z_139_0_4 Z_525_0_0 Z_525_0_1 Z_525_0_2 Z_525_0_3 Z_525_0_4
End
