ilp_joint/output/convection_ilp.sol
# Solution for model convection_srl_ilp
# Objective value = 2.0697795358958397e+00
Z_57_0_0 0
Z_57_0_1 0
Z_57_0_2 1
Z_57_0_3 0
Z_57_0_4 0
Z_139_0_0 0
Z_139_0_1 0
Z_139_0_2 1
Z_139_0_3 0
Z_139_0_4 0
Z_525_0_0 0
Z_525_0_1 0
Z_525_0_2 1
Z_525_0_3 0
Z_525_0_4 0
